set FACT = F1, F2;
set CUST = C1, C2, C3;

param supply :=
	F1 525
	F2 775 ;

param limit default 525;

param cost: C1 C2 C3 :=
			F1 40 10 12
			F2 30 5 8 ;

param demand :=
				C1 450
				C2 575
				C3 250 ;